60

 0   1   2   3   1   2   3   4   2   3   4   5   3   4   5   6   4   5   6   7   5   6   7   8   6   7   8   9   7   8   9  10   8   9  10  11   9  10  11  12  10  11  12  13  11  12  13  14  12  13  14  15  13  14  15  16  14  15  16  17  
 1   0   1   2   2   1   2   3   3   2   3   4   4   3   4   5   5   4   5   6   6   5   6   7   7   6   7   8   8   7   8   9   9   8   9  10  10   9  10  11  11  10  11  12  12  11  12  13  13  12  13  14  14  13  14  15  15  14  15  16  
 2   1   0   1   3   2   1   2   4   3   2   3   5   4   3   4   6   5   4   5   7   6   5   6   8   7   6   7   9   8   7   8  10   9   8   9  11  10   9  10  12  11  10  11  13  12  11  12  14  13  12  13  15  14  13  14  16  15  14  15  
 3   2   1   0   4   3   2   1   5   4   3   2   6   5   4   3   7   6   5   4   8   7   6   5   9   8   7   6  10   9   8   7  11  10   9   8  12  11  10   9  13  12  11  10  14  13  12  11  15  14  13  12  16  15  14  13  17  16  15  14  
 1   2   3   4   0   1   2   3   1   2   3   4   2   3   4   5   3   4   5   6   4   5   6   7   5   6   7   8   6   7   8   9   7   8   9  10   8   9  10  11   9  10  11  12  10  11  12  13  11  12  13  14  12  13  14  15  13  14  15  16  
 2   1   2   3   1   0   1   2   2   1   2   3   3   2   3   4   4   3   4   5   5   4   5   6   6   5   6   7   7   6   7   8   8   7   8   9   9   8   9  10  10   9  10  11  11  10  11  12  12  11  12  13  13  12  13  14  14  13  14  15  
 3   2   1   2   2   1   0   1   3   2   1   2   4   3   2   3   5   4   3   4   6   5   4   5   7   6   5   6   8   7   6   7   9   8   7   8  10   9   8   9  11  10   9  10  12  11  10  11  13  12  11  12  14  13  12  13  15  14  13  14  
 4   3   2   1   3   2   1   0   4   3   2   1   5   4   3   2   6   5   4   3   7   6   5   4   8   7   6   5   9   8   7   6  10   9   8   7  11  10   9   8  12  11  10   9  13  12  11  10  14  13  12  11  15  14  13  12  16  15  14  13  
 2   3   4   5   1   2   3   4   0   1   2   3   1   2   3   4   2   3   4   5   3   4   5   6   4   5   6   7   5   6   7   8   6   7   8   9   7   8   9  10   8   9  10  11   9  10  11  12  10  11  12  13  11  12  13  14  12  13  14  15  
 3   2   3   4   2   1   2   3   1   0   1   2   2   1   2   3   3   2   3   4   4   3   4   5   5   4   5   6   6   5   6   7   7   6   7   8   8   7   8   9   9   8   9  10  10   9  10  11  11  10  11  12  12  11  12  13  13  12  13  14  
 4   3   2   3   3   2   1   2   2   1   0   1   3   2   1   2   4   3   2   3   5   4   3   4   6   5   4   5   7   6   5   6   8   7   6   7   9   8   7   8  10   9   8   9  11  10   9  10  12  11  10  11  13  12  11  12  14  13  12  13  
 5   4   3   2   4   3   2   1   3   2   1   0   4   3   2   1   5   4   3   2   6   5   4   3   7   6   5   4   8   7   6   5   9   8   7   6  10   9   8   7  11  10   9   8  12  11  10   9  13  12  11  10  14  13  12  11  15  14  13  12  
 3   4   5   6   2   3   4   5   1   2   3   4   0   1   2   3   1   2   3   4   2   3   4   5   3   4   5   6   4   5   6   7   5   6   7   8   6   7   8   9   7   8   9  10   8   9  10  11   9  10  11  12  10  11  12  13  11  12  13  14  
 4   3   4   5   3   2   3   4   2   1   2   3   1   0   1   2   2   1   2   3   3   2   3   4   4   3   4   5   5   4   5   6   6   5   6   7   7   6   7   8   8   7   8   9   9   8   9  10  10   9  10  11  11  10  11  12  12  11  12  13  
 5   4   3   4   4   3   2   3   3   2   1   2   2   1   0   1   3   2   1   2   4   3   2   3   5   4   3   4   6   5   4   5   7   6   5   6   8   7   6   7   9   8   7   8  10   9   8   9  11  10   9  10  12  11  10  11  13  12  11  12  
 6   5   4   3   5   4   3   2   4   3   2   1   3   2   1   0   4   3   2   1   5   4   3   2   6   5   4   3   7   6   5   4   8   7   6   5   9   8   7   6  10   9   8   7  11  10   9   8  12  11  10   9  13  12  11  10  14  13  12  11  
 4   5   6   7   3   4   5   6   2   3   4   5   1   2   3   4   0   1   2   3   1   2   3   4   2   3   4   5   3   4   5   6   4   5   6   7   5   6   7   8   6   7   8   9   7   8   9  10   8   9  10  11   9  10  11  12  10  11  12  13  
 5   4   5   6   4   3   4   5   3   2   3   4   2   1   2   3   1   0   1   2   2   1   2   3   3   2   3   4   4   3   4   5   5   4   5   6   6   5   6   7   7   6   7   8   8   7   8   9   9   8   9  10  10   9  10  11  11  10  11  12  
 6   5   4   5   5   4   3   4   4   3   2   3   3   2   1   2   2   1   0   1   3   2   1   2   4   3   2   3   5   4   3   4   6   5   4   5   7   6   5   6   8   7   6   7   9   8   7   8  10   9   8   9  11  10   9  10  12  11  10  11  
 7   6   5   4   6   5   4   3   5   4   3   2   4   3   2   1   3   2   1   0   4   3   2   1   5   4   3   2   6   5   4   3   7   6   5   4   8   7   6   5   9   8   7   6  10   9   8   7  11  10   9   8  12  11  10   9  13  12  11  10  
 5   6   7   8   4   5   6   7   3   4   5   6   2   3   4   5   1   2   3   4   0   1   2   3   1   2   3   4   2   3   4   5   3   4   5   6   4   5   6   7   5   6   7   8   6   7   8   9   7   8   9  10   8   9  10  11   9  10  11  12  
 6   5   6   7   5   4   5   6   4   3   4   5   3   2   3   4   2   1   2   3   1   0   1   2   2   1   2   3   3   2   3   4   4   3   4   5   5   4   5   6   6   5   6   7   7   6   7   8   8   7   8   9   9   8   9  10  10   9  10  11  
 7   6   5   6   6   5   4   5   5   4   3   4   4   3   2   3   3   2   1   2   2   1   0   1   3   2   1   2   4   3   2   3   5   4   3   4   6   5   4   5   7   6   5   6   8   7   6   7   9   8   7   8  10   9   8   9  11  10   9  10  
 8   7   6   5   7   6   5   4   6   5   4   3   5   4   3   2   4   3   2   1   3   2   1   0   4   3   2   1   5   4   3   2   6   5   4   3   7   6   5   4   8   7   6   5   9   8   7   6  10   9   8   7  11  10   9   8  12  11  10   9  
 6   7   8   9   5   6   7   8   4   5   6   7   3   4   5   6   2   3   4   5   1   2   3   4   0   1   2   3   1   2   3   4   2   3   4   5   3   4   5   6   4   5   6   7   5   6   7   8   6   7   8   9   7   8   9  10   8   9  10  11  
 7   6   7   8   6   5   6   7   5   4   5   6   4   3   4   5   3   2   3   4   2   1   2   3   1   0   1   2   2   1   2   3   3   2   3   4   4   3   4   5   5   4   5   6   6   5   6   7   7   6   7   8   8   7   8   9   9   8   9  10  
 8   7   6   7   7   6   5   6   6   5   4   5   5   4   3   4   4   3   2   3   3   2   1   2   2   1   0   1   3   2   1   2   4   3   2   3   5   4   3   4   6   5   4   5   7   6   5   6   8   7   6   7   9   8   7   8  10   9   8   9  
 9   8   7   6   8   7   6   5   7   6   5   4   6   5   4   3   5   4   3   2   4   3   2   1   3   2   1   0   4   3   2   1   5   4   3   2   6   5   4   3   7   6   5   4   8   7   6   5   9   8   7   6  10   9   8   7  11  10   9   8  
 7   8   9  10   6   7   8   9   5   6   7   8   4   5   6   7   3   4   5   6   2   3   4   5   1   2   3   4   0   1   2   3   1   2   3   4   2   3   4   5   3   4   5   6   4   5   6   7   5   6   7   8   6   7   8   9   7   8   9  10  
 8   7   8   9   7   6   7   8   6   5   6   7   5   4   5   6   4   3   4   5   3   2   3   4   2   1   2   3   1   0   1   2   2   1   2   3   3   2   3   4   4   3   4   5   5   4   5   6   6   5   6   7   7   6   7   8   8   7   8   9  
 9   8   7   8   8   7   6   7   7   6   5   6   6   5   4   5   5   4   3   4   4   3   2   3   3   2   1   2   2   1   0   1   3   2   1   2   4   3   2   3   5   4   3   4   6   5   4   5   7   6   5   6   8   7   6   7   9   8   7   8  
10   9   8   7   9   8   7   6   8   7   6   5   7   6   5   4   6   5   4   3   5   4   3   2   4   3   2   1   3   2   1   0   4   3   2   1   5   4   3   2   6   5   4   3   7   6   5   4   8   7   6   5   9   8   7   6  10   9   8   7  
 8   9  10  11   7   8   9  10   6   7   8   9   5   6   7   8   4   5   6   7   3   4   5   6   2   3   4   5   1   2   3   4   0   1   2   3   1   2   3   4   2   3   4   5   3   4   5   6   4   5   6   7   5   6   7   8   6   7   8   9  
 9   8   9  10   8   7   8   9   7   6   7   8   6   5   6   7   5   4   5   6   4   3   4   5   3   2   3   4   2   1   2   3   1   0   1   2   2   1   2   3   3   2   3   4   4   3   4   5   5   4   5   6   6   5   6   7   7   6   7   8  
10   9   8   9   9   8   7   8   8   7   6   7   7   6   5   6   6   5   4   5   5   4   3   4   4   3   2   3   3   2   1   2   2   1   0   1   3   2   1   2   4   3   2   3   5   4   3   4   6   5   4   5   7   6   5   6   8   7   6   7  
11  10   9   8  10   9   8   7   9   8   7   6   8   7   6   5   7   6   5   4   6   5   4   3   5   4   3   2   4   3   2   1   3   2   1   0   4   3   2   1   5   4   3   2   6   5   4   3   7   6   5   4   8   7   6   5   9   8   7   6  
 9  10  11  12   8   9  10  11   7   8   9  10   6   7   8   9   5   6   7   8   4   5   6   7   3   4   5   6   2   3   4   5   1   2   3   4   0   1   2   3   1   2   3   4   2   3   4   5   3   4   5   6   4   5   6   7   5   6   7   8  
10   9  10  11   9   8   9  10   8   7   8   9   7   6   7   8   6   5   6   7   5   4   5   6   4   3   4   5   3   2   3   4   2   1   2   3   1   0   1   2   2   1   2   3   3   2   3   4   4   3   4   5   5   4   5   6   6   5   6   7  
11  10   9  10  10   9   8   9   9   8   7   8   8   7   6   7   7   6   5   6   6   5   4   5   5   4   3   4   4   3   2   3   3   2   1   2   2   1   0   1   3   2   1   2   4   3   2   3   5   4   3   4   6   5   4   5   7   6   5   6  
12  11  10   9  11  10   9   8  10   9   8   7   9   8   7   6   8   7   6   5   7   6   5   4   6   5   4   3   5   4   3   2   4   3   2   1   3   2   1   0   4   3   2   1   5   4   3   2   6   5   4   3   7   6   5   4   8   7   6   5  
10  11  12  13   9  10  11  12   8   9  10  11   7   8   9  10   6   7   8   9   5   6   7   8   4   5   6   7   3   4   5   6   2   3   4   5   1   2   3   4   0   1   2   3   1   2   3   4   2   3   4   5   3   4   5   6   4   5   6   7  
11  10  11  12  10   9  10  11   9   8   9  10   8   7   8   9   7   6   7   8   6   5   6   7   5   4   5   6   4   3   4   5   3   2   3   4   2   1   2   3   1   0   1   2   2   1   2   3   3   2   3   4   4   3   4   5   5   4   5   6  
12  11  10  11  11  10   9  10  10   9   8   9   9   8   7   8   8   7   6   7   7   6   5   6   6   5   4   5   5   4   3   4   4   3   2   3   3   2   1   2   2   1   0   1   3   2   1   2   4   3   2   3   5   4   3   4   6   5   4   5  
13  12  11  10  12  11  10   9  11  10   9   8  10   9   8   7   9   8   7   6   8   7   6   5   7   6   5   4   6   5   4   3   5   4   3   2   4   3   2   1   3   2   1   0   4   3   2   1   5   4   3   2   6   5   4   3   7   6   5   4  
11  12  13  14  10  11  12  13   9  10  11  12   8   9  10  11   7   8   9  10   6   7   8   9   5   6   7   8   4   5   6   7   3   4   5   6   2   3   4   5   1   2   3   4   0   1   2   3   1   2   3   4   2   3   4   5   3   4   5   6  
12  11  12  13  11  10  11  12  10   9  10  11   9   8   9  10   8   7   8   9   7   6   7   8   6   5   6   7   5   4   5   6   4   3   4   5   3   2   3   4   2   1   2   3   1   0   1   2   2   1   2   3   3   2   3   4   4   3   4   5  
13  12  11  12  12  11  10  11  11  10   9  10  10   9   8   9   9   8   7   8   8   7   6   7   7   6   5   6   6   5   4   5   5   4   3   4   4   3   2   3   3   2   1   2   2   1   0   1   3   2   1   2   4   3   2   3   5   4   3   4  
14  13  12  11  13  12  11  10  12  11  10   9  11  10   9   8  10   9   8   7   9   8   7   6   8   7   6   5   7   6   5   4   6   5   4   3   5   4   3   2   4   3   2   1   3   2   1   0   4   3   2   1   5   4   3   2   6   5   4   3  
12  13  14  15  11  12  13  14  10  11  12  13   9  10  11  12   8   9  10  11   7   8   9  10   6   7   8   9   5   6   7   8   4   5   6   7   3   4   5   6   2   3   4   5   1   2   3   4   0   1   2   3   1   2   3   4   2   3   4   5  
13  12  13  14  12  11  12  13  11  10  11  12  10   9  10  11   9   8   9  10   8   7   8   9   7   6   7   8   6   5   6   7   5   4   5   6   4   3   4   5   3   2   3   4   2   1   2   3   1   0   1   2   2   1   2   3   3   2   3   4  
14  13  12  13  13  12  11  12  12  11  10  11  11  10   9  10  10   9   8   9   9   8   7   8   8   7   6   7   7   6   5   6   6   5   4   5   5   4   3   4   4   3   2   3   3   2   1   2   2   1   0   1   3   2   1   2   4   3   2   3  
15  14  13  12  14  13  12  11  13  12  11  10  12  11  10   9  11  10   9   8  10   9   8   7   9   8   7   6   8   7   6   5   7   6   5   4   6   5   4   3   5   4   3   2   4   3   2   1   3   2   1   0   4   3   2   1   5   4   3   2  
13  14  15  16  12  13  14  15  11  12  13  14  10  11  12  13   9  10  11  12   8   9  10  11   7   8   9  10   6   7   8   9   5   6   7   8   4   5   6   7   3   4   5   6   2   3   4   5   1   2   3   4   0   1   2   3   1   2   3   4  
14  13  14  15  13  12  13  14  12  11  12  13  11  10  11  12  10   9  10  11   9   8   9  10   8   7   8   9   7   6   7   8   6   5   6   7   5   4   5   6   4   3   4   5   3   2   3   4   2   1   2   3   1   0   1   2   2   1   2   3  
15  14  13  14  14  13  12  13  13  12  11  12  12  11  10  11  11  10   9  10  10   9   8   9   9   8   7   8   8   7   6   7   7   6   5   6   6   5   4   5   5   4   3   4   4   3   2   3   3   2   1   2   2   1   0   1   3   2   1   2  
16  15  14  13  15  14  13  12  14  13  12  11  13  12  11  10  12  11  10   9  11  10   9   8  10   9   8   7   9   8   7   6   8   7   6   5   7   6   5   4   6   5   4   3   5   4   3   2   4   3   2   1   3   2   1   0   4   3   2   1  
14  15  16  17  13  14  15  16  12  13  14  15  11  12  13  14  10  11  12  13   9  10  11  12   8   9  10  11   7   8   9  10   6   7   8   9   5   6   7   8   4   5   6   7   3   4   5   6   2   3   4   5   1   2   3   4   0   1   2   3  
15  14  15  16  14  13  14  15  13  12  13  14  12  11  12  13  11  10  11  12  10   9  10  11   9   8   9  10   8   7   8   9   7   6   7   8   6   5   6   7   5   4   5   6   4   3   4   5   3   2   3   4   2   1   2   3   1   0   1   2  
16  15  14  15  15  14  13  14  14  13  12  13  13  12  11  12  12  11  10  11  11  10   9  10  10   9   8   9   9   8   7   8   8   7   6   7   7   6   5   6   6   5   4   5   5   4   3   4   4   3   2   3   3   2   1   2   2   1   0   1  
17  16  15  14  16  15  14  13  15  14  13  12  14  13  12  11  13  12  11  10  12  11  10   9  11  10   9   8  10   9   8   7   9   8   7   6   8   7   6   5   7   6   5   4   6   5   4   3   5   4   3   2   4   3   2   1   3   2   1   0  

 0   0  53   0   0   0   0   5   0  51   1   1   0   0  14   8   0   0   0   1   0   0   0   0   0   0   1  29   0   1   0   0   0   1   0   0   0  35   0   1   0   0   3   0  78   0   1   0   0   0  43   1   0   0   0   0   0   0   0   0  
 0   0   1   0   0   0   1   1   0  46  20  28   0   0  31   1   4   0   0   0   0  37   0   1   0   0   0   0   0   0   0   0  16   1   1   0   0   0   0   0   0   0   0   0   0   0   0   0   0   1   1   1   1   0   1  23   0   0   0   0  
13   0   0   0   4   1   1   0   1   0   0   1   1  99   1  58   0   0   0   0   0   0   0   0   0   0   0   0   0   0   0   0   0   1   0   0   0   0   0   0   2  17   0   0   0   0   1   0   0  43   0   0   1   0   1   0   0   0   0   0  
 0   0   0   0   1   4   0   0   0  87   1   1   0   0   1   0   0   0   1  35   0  18   0   0   0   0   0   3   0   0   0   0   0   0   0   0   0   0   0   0  43   1   0   0  13   1  56   0   0   1   0   0   0   0   0   0   0   0   0  72  
 0   0   0   0   0   0   0   0   0   0   0   1   0   0   0   0   2   0   0   0   0   0   1   1   0   0   0   1   1   6   0  10   0   0   0   0   0   0   1   0   1   0   0   1   0   0   0   0   0   1  77   0   0   0   0   0   0   0   2   0  
49   0   1   1   0   0   0   0   0   0   0   5   0   0   0   0   0   1   0   4   0   0   0   0   0   0   0   0   0   5   0   0   0  20   1   0   0   0  76   0   0   0   0   0   9   1   0   0   0  79   1   0   0   0   0   0   4   0   0   1  
 0   0   0   0   0   1   0   9   0   1   0   0   0   2   1   0   0   1   2   1   0   0   0   1   0   0   1   0   0   0   0   0  90  13  39  37   0   0   1   0   0   0   0   0   0   0  17   0   0   0   1   0   0   0   0   0   0   0   0   1  
 0   0   0   1  10   0   0   0   0   0   0   0   0  47   0   0   0   0   0   1   0   0  14   0   0  45   0   0  10   0   0   0   0   1   0   0   0   1   0   0   1   0   0   0   0  53   0   0   0   0   1  13   0   0   0   0   0   0   3   0  
 0   8   1   0   0   0  85   0   0   0   0   0   0   0   0   1   3   0   0   0   1   0   0   1   0   1   0  44   0   0  17  38   0   0   1   0   1   8   1   0   0   0  51   0   0   1   0   1  90   1   0   0   0   6   0   0   0   1  10   0  
 0   0   0   0   0   0   0   0   0   0   1   0   0   0   0   0  73   0   0   0   0   0   0   0  62   1   0   0   1   0   0   1   0   0   0   0   0   0  12   0   0   0  21   0   0   0   0   0   0   0   0   0   0   0   0   0  93  41   0   0  
 1   0   0   0   0   0   1   0   0   0   0   0   0   0   0   0   0   0   0   0   0   0   0   1   0   0   0   0   1   0   0   1   0   0   1   0   0   0   1   0   0   0   0  44   0   0   0   1   0  17   0   0  81  11   0   1   0  55   0   0  
 0   0   0   0   0   0   0   1   0   0  19   0   0  79  17   0  28   0   0   3   0   0  89   0   0   0   0   0   0   0   0   0  98   0  57   0   0   0   0   0   0  59  57   0   0   0   0   0   0  38   0   0   0   1   0   1   0   0   0   0  
10   1   0   0  55   0   0   3   1   1   0   0   0   0   0   0   0   0  18   0   0   0   1   0   0   0   1   1   0   0  71   0   0   0   0   0   0   1   1   0   0   0   0   0   0   0   0   1   0   0   0   1   1   0   0   0   4   0   0   0  
91   0   1   0   0   0   0  86   0   1   1   0   0   0   0  38   0   4   0   1   3   1   2   0   0   0   1   0   0  70   0   1   1   0   1   0   0   0   1   0  92   0   0   5   0   0   0   0   0  18   1   0   1   0   0   0   0   0   1   0  
 0   0   0   0   0   0   0   0   0   4   0   0   0   0   0   1   0  15   8   0   0   0   0   3   0   1   0   0   0   0   0   0   0   1   0   1   0   0   0   0   0   0   0   0   0   0   0   0   3   0   0   0   0   1   1   0   0   0   0   0  
 0   0   4   0   0   0   0   0  14   0   0   0  20  49   8   0   0   0   1   0   0   0   0   0   0  13  65   1   1   0   0   0   1   0   0  31   1  11   0   0   0   0   0   0   0   0   1   0  18   1   0  37   1   0   0   0  25   1   0   0  
 0   0   0   1   1  12   0   0  35   0   1   0  41   0   1   0   0   0   0   0   0   0   0   0   1   6   0   0   0   1   0   0   1   0   0   1  24  64   0   0   0   0   0   0   0   0   0   0   0   0  60   0  18   0   0  87   7   0   0   1  
 7   0   1   0   0   8   0   1  18   0   1   1   1   0   0   0   0   0   0   0  22   0   0   0   0   0   0   0   1   0   0   0   0  49   1   0   0   0   0   0   1   0   1   0   0   0   0  36   0  10   5   0   0   0   0  60  48   1   0   0  
 0   1  28   0   1   0  43   0   0   0   1   0   0   1   0   7   0   0   0   1   0  17   1   0   0   0   0   0  19   0   0   0   0   0   0   0   0   1   0   0  78   0   1   0   0   0   1   1   0   0   1   0   0   0   0   0   0   0   0   0  
 0   0   0   0   0   1   0   0  15   0   0   0   0   0   0   0   0   0   0   0   0   0   1   0  30   1   1   0   0  48   0   1   0   1   1   0  30   0   1   0  71   0  30   0   0   0  96   0   0  25   0   0   0   0   0   1  27   0   0   0  
 0   0  97   0   0   0   0   0   0   1  10   1   1   0   0   0   0   0   1   0   0   0   0   0   0   1   1   1   0   0   0   1   0   0   0   1   0   0   0   0   0  70   0   0   1   0   2   0   1   0   9   1   0   0   0   1   1  69   0   0  
 0   4   0   1   0   0   1   1   1   0   0   1   0   0   0   0   1   1   0   0   0   0   0   0   1   0   2   0  53   0   1  24   0   0   3   0   0  68   0   0   1   1   0   1   0   0   0   1   0   0   0   0   9   0   0   0   0   0   0   0  
 0   5   0   0  12   0   0   0   0   0   1   5   0   0   0   1   0   0   1   1   0   0   0   7  11  28   0   0   0   0   0   1   1  28   0   0   0   0   0   2   0   0   0   0   0   0   0   1   0   0   1   1   0   0  39   0   0   2   0   0  
 1   1   0   0   0   1   1   0   0   0   0   0   0   0   0   0   0   1   0   0   0  54   1   0   0  38   0   0   0   0   1   5   4  94   0   0   0   0   1   1   0   0   0   0   5   0   4   0   0   0   0   1   0   0   1   0   0   0   0   1  
16  72   1   0   0   0   1   1   0   0   0   1   0   0  14   0   0   0   5   0  21   0   0   0   0   0   0   1   0   0   0   0   0   0   0   1   0   1   0   0   0   0  37  54   0   0   0   1   1   0   0   4   0   0   0   0   5   3   0   0  
 1   0   0   0   1   0   0   0   0   1   0   0   3   1   0  90   0   0  16   0   0  28   0   0  83   0   0   0   0   0   0   1   0   0   1   0   0   0   0   1   1   0   0   0   0   0   0   0   5   0   0   0   0   7   0   0   0   0   0   0  
 0   0   0   0   1   1   0   0   0   0   0   0   0   0   0   0   0   0   1   0   0   5   0   1  33   0   0   1   0   0   0   0   0   1   0   0   0   0   0   1   0   1   1   0   0  35   0   0   0   0   0   0  30   0   0   0   0   0   0   0  
 0   0   0   1  25   1   1   0  28   0  30   0   0   0   0   0   0   1   0   0   1  52   0  12   0   1   1   0   1   0   0   1   0   0   1   1   1   0   0   0   0   0   0   0   0   0   0   0  52   0   2   0   0   1   0   0   0   0   0   0  
 1   0   8   1  99   0   0   0   0   0   0   0   0   0   1   0   0   0  24   0   0   0   0  20  25   0  22  44   0   0   0   0   0   0   0   0   0   0   0   1   0   0   0   1   0   1   0   0   0  35   1   1   0   0   8   0   5  23   0   0  
 1   0   0  18   0   0   1   0   0   0   3   0   0   1   1   0   0   1   1   0  36   0   0   0   0   0   1   0   0   0   0   0   7   1   0   0   7   0   1   0   0   9   0  52   7   0   0   1   0   0   0   0   0   0   0   0   0   8   0   0  
 0   1   0   0   0   0   0   1   0   0   1   0   1   1   0   0   0   0   1   1  92   0   2  30   0   0   0   0   0  15   0   1   0   0   0   0   1   0   0  49   0   1   0   0   0   0   0   0  11   0   0   1   0  57   0   0   1   0   0   0  
 1   1   0   0   0   0   1   0   0   0   0   0   1   0   0   0   0   0   5   0   1   0   0   1   0   0   0   0   1   1   0   0  36   0   0   0   0   1   0   0   0   0   0   0   0   0   0   0   0   1   0   0   1   1   0   0   4   0   0   0  
 0  51   0   0  19   4   0   0   0   0   0   1  99   0   0   0   0  20   1   0   0   0   0   1   5  79   1   0   0   0   0   0   0  10   1   0   1   0   0   0   2   0   0   0   0   0   1   0   0   0   0   0   0   0   4   0   1   0  59   1  
 1   0  13   0   0   0   0   0   1   0   1   0   0   0   0   0   0   0   0   0   0   0   0   0   0   0   0   1   0   1   0   0   0   0   0   0   0   0   0   0   0   0   0   0   5   0   0   0   4   0   0   0   1   0  21  15   0   0   0   0  
 0  13   0   0   0   0   0   0   1   1   0   1  94   0   0   0   0   0   0   0   0   0   0   0   0   0   0   0   0   0   0   0   0   0   0   0   1   0   0   0   0   0  12   0   0   0   1  77   0   0   0   1   0  13   0   0   0   1   0   0  
 0  10  77   0   1   0   0   0   0   0   0   0   0   0   1   0   0   1   0   1  58   0   0   0   0   1   0   0   0   0   0   0   0   0   5   0  56   1   0   0   0  21   0   0   1   1   0   0   0   1   0   0   1   0  27   0   0   0   0   0  
 0   0   0  11   0   1   0   0   0   0   0   0   8   1   0   1   0   0   0   1   0   1   0   0   0   1   0  51   0   1   0   0   0   0   0   1   0   0  27   2   0   1   0  10  16   0   0   0  24   6   0  44   1   0   0   0   0   0   1   0  
 0   1   0   0   2   0   0   0   0   0   0   0   0   0   0   1   0   2   0   0   0   1   0   0   7   0   0   0   0   0   0   1   1   0   0  10   0   0   0   1   1   0   0   0   0   1   0   0   1   0  49   0   0   0   0   0   0   0   0   0  
 0   0   0   0   1   0   0   0   0   0   0  98   2   5   0   0   0   0   1   0   0   1   0  76   0   1   2   1   0   0   0   0   0   0   1   0   0  32   0   1   0   0   0   0   1   0   0   1   0   0   1   0   1   0   1   0   0   0   0   0  
 0   0   0   0   1   4   0   1   0   0  18   0   0  30   0   0   0   0   0   0   0   0   0   0   0   1   0   0   0   0   0   0  15   0   0   0   0   1   0   0   0  75   0   0  10   1   0   0   0   0   0   0   0   0   8   0   0   0   0   0  
 0   0   0   1   0   0   0   0   0   0   0   0  46   0   0   0   0  49  11   0   0   0   8   0   0   0   0   0   0   0   0   0   0   0   0   0   0   0   0  11   0   0   0   0   0   0   0   0   1  28   0   0   1   1  28   1   0  22  84   0  
 0   0   0   0   1   0   6   0   0   0   1   0   0   0   0   0   0   0   1   0   0   0   1   0   0   0   0   1   0   0   0   1   0   0   0   0   0   0   0  17   0   0   1   0   0   0   0   1   0   4   0   0   0   0   0   0   0   9   0   0  
 0   0   0   1   6   0   1   0   4   0   1   0  33   0   0   0   0   0   1   0   0   0   0   0   0   0  11   0   0   0   0  66   0   0   0   1   0   0   0   0   0   3   0   0   0   0   0   0   9   0   0   0   0   0   0   0   0   0   1   1  
 0   0   0   0   0   0   0   0   0   0   1   0  31   0   0   0   0   0   0   1   0   0   1   0   0   0  25   0   0   0   0   1   0   1   1  33   0   0   1   1   0   0   2   0   0   0   1   0   0  62   1   0   0  15   1   1   1   1   0   0  
 0   0   0   0   0   0   1  29   0   0   0   0   1   1   1   0   0   0   0   0   0   1   0   0   0   0   0   0   1   0   0   0   0   1   0   0   0   0   4   0   2   0   0   0   0   4   0   1   0   0   0   0   0   1   0   1   0   0   0   1  
 0   0   0   0   6   0  51   0   0   0   0   3   0   0  11   0   0   0   0   0   0   1   1   0  16   0   1   9   0   1   0   0  36   0   0   5   1   0   0   0   0   0   0   0   0   0   0   0   0   0   0   1   1   0  86   0   0   4  42   0  
 0   0   0   5   0   1   6   0   3   0  18   0   0   1   0   0  42   0   0   0   0   0   0   0  60   8   5   0   0   0   0   0   0   0   0  71   0   0   0   0   0   0   4   0   1   0   0  47   0   1   1  80   0   0   0  14   0  88   0   0  
 0   1   1   0   0   1   0   0   0   0  24   0   0   0   1  37   0  13   1   1   0  39   0   0   0   0   0   0   0   0  70   0   0   0   0   0   3   0   0   0   0   0   0   0   0   1   1   0   0   0   0   0   1   0   0   0   0   1  95   0  
 0   1   2   4   1  78   1   0   1   0  32   0   1   0   1   3   1   1   0   0   0   0   0   0   0  87   0   0   4   0   0   0   0   0   0   1   1   0   0   1   0   0   0   0   0   1   0   0   0   0   0   0   0   0   1   0   0   0   0   0  
 1   0   0   0   0  16   0   2   0   0   0   0   0   1   0  32   1   0   0   0   0   0   0   0   1   0   0   0   1   0   0   0   1   0   0   0   0  16   0   0   0   0   0   1   0   0   1   3   4   0   0   0   0   0   0   0   0   0   0   0  
 0   0   0   0   0   0   0   0   0   0   0   5   0   1   0   0   0   0   0  11   0   1   2   0   0   0   0   0   3   0  21   0   0   0   0   1   0   0   1   0   0   1   0  19   1   1   1  28   2   0   0  27   0   5   0   0   0   0   1   0  
12   0   1   0   1   0   1   5   0  87   6   1   1   0   0   0   1   0   0   0   0   0   0   0   0  49   0   0  18   0   0  57   0   0   0   3   0   0   0   0   0   0   0  84   2   0   0   0   0   0   0   0  29   0   1   0   0   0   2   0  
 0   0   0   0   0  54   0   0   1   0   1   1  88   0   0   0   0   0   0   1   0   1   0   1  38   0   1   0   1   0   0   1   0   0   0  69   0  46   0   0   0   0   0   0   0   0   1   1   0   0  49   0   0   0   0   1   0   0   0   0  
 1   1   0  14   0   0   0   0   0   0   0   0   0   0  43   3   0   0   0   0   1   0   0   5   0   0   0   0   0   0   0   0   1   0   0   6   0   0  37  45   0   0   0   0   0   0   0  11   0   0   1   0   0   0   0   0  22   0   1   0  
 0  83   0   1  16   0   0   0   0  49   1  39   0   1   0   0   0   0   0   0   0   0   0   1   1   0  15   1   0  23  15   0   0   0   0   0   1   1   0   0   0   0   0   0   0   0   0   0   0   1   0   0   0   1   0   0   0  85   1   1  
 0   0   0  51   0   0   0   0   0   2   0   0   0   0   0   0   0   0   0   0   1   0   1   0   0   0   0   0   0   0   0   0   0   0   0   0   0   1   0   0   0   0   0   0   0   1   0  14   0   0   0   1   0   0   0   0   0   0   0   0  
 0   0   0   1   0   0   0   0   0   0   0   0   0   0   0   1   0  35   0  78   0   0  21   0   0   0   0   0   0   0   1   0   1   0   0   1   0   0   0   0   2   0   0   0   0   0  30   0   0   0   0   0   1   0  49   0   0   0   0   0  
 0   0   0   0  52   0   1   0   0   0   0  26   1   0   0  12   0   1   4   0   0   0   0   0   1   0   0   0   0   8   0   0   0   0   1   0   0   0   0   0   0   0   0   0   0   6  68   2   0   0   0   0   1   0   0   1   0   0   0   1  
 0   0   2   0   0   0   0   0  63   0   0  10   0   1  11   0   0   1   0   0   0   0   0   0   0   0  96   1   0   0   0   0   0   0   0   0   4   0   0   0   0   0   0   0  52  63   0   0   0   0   0   0   1   0   0   0   0   0   0   0  
 0   0   1   0  87   1  13   1   0   0   1   0  33   0   0   0   0   0   0   0   0   0  39  16   0  87  66   0   0   0   0   1   1   1   0   0   1   0   1   0   0   0   0   0   0   0   0   0   0   0   0   0   0   2   1   0   0   0   0   0  
